lab5/part1/adder/adder_synth/model/design_smt2.smt2
; SMT-LIBv2 description generated by Yosys 0.25+1 (git sha1 d3216593d, clang 10.0.0-4ubuntu1 -fPIC -Os)
; yosys-smt2-module yosys_adder
(declare-sort |yosys_adder_s| 0)
(declare-fun |yosys_adder_is| (|yosys_adder_s|) Bool)
(declare-fun |yosys_adder#0| (|yosys_adder_s|) (_ BitVec 1)) ; \b_i [0]
(declare-fun |yosys_adder#1| (|yosys_adder_s|) (_ BitVec 1)) ; \a_i [0]
(define-fun |yosys_adder#2| ((state |yosys_adder_s|)) (_ BitVec 1) (bvxor (|yosys_adder#0| state) (|yosys_adder#1| state))) ; $xor$adder.sv:138$17_Y
(define-fun |yosys_adder#3| ((state |yosys_adder_s|)) (_ BitVec 1) (bvnot (|yosys_adder#2| state))) ; \_06_
(declare-fun |yosys_adder#4| (|yosys_adder_s|) (_ BitVec 1)) ; \c_i [0]
(define-fun |yosys_adder#5| ((state |yosys_adder_s|)) (_ BitVec 1) (bvnot (|yosys_adder#4| state))) ; \_05_
(define-fun |yosys_adder#6| ((state |yosys_adder_s|)) (_ BitVec 1) (bvxor (|yosys_adder#3| state) (|yosys_adder#5| state))) ; \sum_o [0]
(define-fun |yosys_adder#7| ((state |yosys_adder_s|)) (_ BitVec 1) (bvor (|yosys_adder#3| state) (|yosys_adder#5| state))) ; \_07_
(define-fun |yosys_adder#8| ((state |yosys_adder_s|)) (_ BitVec 1) (bvnot (|yosys_adder#1| state))) ; $not$adder.sv:135$13_Y
(define-fun |yosys_adder#9| ((state |yosys_adder_s|)) (_ BitVec 1) (bvand (|yosys_adder#0| state) (|yosys_adder#8| state))) ; \_03_
(declare-fun |yosys_adder#10| (|yosys_adder_s|) (_ BitVec 1)) ; \c_i [1]
(declare-fun |yosys_adder#11| (|yosys_adder_s|) (_ BitVec 1)) ; \a_i [1]
(define-fun |yosys_adder#12| ((state |yosys_adder_s|)) (_ BitVec 1) (bvxor (|yosys_adder#10| state) (|yosys_adder#11| state))) ; $not$adder.sv:145$28_Y
(define-fun |yosys_adder#13| ((state |yosys_adder_s|)) (_ BitVec 1) (bvnot (|yosys_adder#12| state))) ; \_01_
(declare-fun |yosys_adder#14| (|yosys_adder_s|) (_ BitVec 1)) ; \b_i [1]
(define-fun |yosys_adder#15| ((state |yosys_adder_s|)) (_ BitVec 1) (bvnot (|yosys_adder#14| state))) ; \_00_
(define-fun |yosys_adder#16| ((state |yosys_adder_s|)) (_ BitVec 1) (bvxor (|yosys_adder#13| state) (|yosys_adder#15| state))) ; \_02_
(define-fun |yosys_adder#17| ((state |yosys_adder_s|)) (_ BitVec 1) (bvxor (|yosys_adder#9| state) (|yosys_adder#16| state))) ; \_04_
(define-fun |yosys_adder#18| ((state |yosys_adder_s|)) (_ BitVec 1) (bvxor (|yosys_adder#7| state) (|yosys_adder#17| state))) ; $xor$adder.sv:140$20_Y
(define-fun |yosys_adder#19| ((state |yosys_adder_s|)) (_ BitVec 1) (bvnot (|yosys_adder#18| state))) ; \sum_o [1]
(define-fun |yosys_adder#20| ((state |yosys_adder_s|)) (_ BitVec 1) (bvnot (|yosys_adder#7| state))) ; $not$adder.sv:149$35_Y
(define-fun |yosys_adder#21| ((state |yosys_adder_s|)) (_ BitVec 1) (bvand (|yosys_adder#17| state) (|yosys_adder#20| state))) ; \_16_
(define-fun |yosys_adder#22| ((state |yosys_adder_s|)) (_ BitVec 1) (bvor (|yosys_adder#9| state) (|yosys_adder#16| state))) ; \_15_
(define-fun |yosys_adder#23| ((state |yosys_adder_s|)) (_ BitVec 1) (bvnot (|yosys_adder#22| state))) ; $not$adder.sv:150$37_Y
(define-fun |yosys_adder#24| ((state |yosys_adder_s|)) (_ BitVec 1) (bvor (|yosys_adder#21| state) (|yosys_adder#23| state))) ; \_17_
(define-fun |yosys_adder#25| ((state |yosys_adder_s|)) (_ BitVec 1) (bvand (|yosys_adder#10| state) (|yosys_adder#11| state))) ; $and$adder.sv:144$26_Y
(define-fun |yosys_adder#26| ((state |yosys_adder_s|)) (_ BitVec 1) (bvnot (|yosys_adder#25| state))) ; \_11_
(define-fun |yosys_adder#27| ((state |yosys_adder_s|)) (_ BitVec 1) (bvand (|yosys_adder#15| state) (|yosys_adder#12| state))) ; \_12_
(define-fun |yosys_adder#28| ((state |yosys_adder_s|)) (_ BitVec 1) (bvnot (|yosys_adder#27| state))) ; $not$adder.sv:146$30_Y
(define-fun |yosys_adder#29| ((state |yosys_adder_s|)) (_ BitVec 1) (bvand (|yosys_adder#26| state) (|yosys_adder#28| state))) ; \_13_
(declare-fun |yosys_adder#30| (|yosys_adder_s|) (_ BitVec 1)) ; \c_i [2]
(declare-fun |yosys_adder#31| (|yosys_adder_s|) (_ BitVec 1)) ; \a_i [2]
(define-fun |yosys_adder#32| ((state |yosys_adder_s|)) (_ BitVec 1) (bvxor (|yosys_adder#30| state) (|yosys_adder#31| state))) ; $not$adder.sv:156$47_Y
(define-fun |yosys_adder#33| ((state |yosys_adder_s|)) (_ BitVec 1) (bvnot (|yosys_adder#32| state))) ; \_09_
(declare-fun |yosys_adder#34| (|yosys_adder_s|) (_ BitVec 1)) ; \b_i [2]
(define-fun |yosys_adder#35| ((state |yosys_adder_s|)) (_ BitVec 1) (bvnot (|yosys_adder#34| state))) ; \_08_
(define-fun |yosys_adder#36| ((state |yosys_adder_s|)) (_ BitVec 1) (bvxor (|yosys_adder#33| state) (|yosys_adder#35| state))) ; \_10_
(define-fun |yosys_adder#37| ((state |yosys_adder_s|)) (_ BitVec 1) (bvxor (|yosys_adder#29| state) (|yosys_adder#36| state))) ; $not$adder.sv:160$54_Y
(define-fun |yosys_adder#38| ((state |yosys_adder_s|)) (_ BitVec 1) (bvnot (|yosys_adder#37| state))) ; \_14_
(define-fun |yosys_adder#39| ((state |yosys_adder_s|)) (_ BitVec 1) (bvxor (|yosys_adder#24| state) (|yosys_adder#38| state))) ; $xor$adder.sv:151$39_Y
(define-fun |yosys_adder#40| ((state |yosys_adder_s|)) (_ BitVec 1) (bvnot (|yosys_adder#39| state))) ; \sum_o [2]
(define-fun |yosys_adder#41| ((state |yosys_adder_s|)) (_ BitVec 1) (bvor (|yosys_adder#29| state) (|yosys_adder#36| state))) ; \_25_
(define-fun |yosys_adder#42| ((state |yosys_adder_s|)) (_ BitVec 1) (bvand (|yosys_adder#24| state) (|yosys_adder#37| state))) ; \_26_
(define-fun |yosys_adder#43| ((state |yosys_adder_s|)) (_ BitVec 1) (bvnot (|yosys_adder#42| state))) ; $not$adder.sv:161$56_Y
(define-fun |yosys_adder#44| ((state |yosys_adder_s|)) (_ BitVec 1) (bvand (|yosys_adder#41| state) (|yosys_adder#43| state))) ; \_27_
(define-fun |yosys_adder#45| ((state |yosys_adder_s|)) (_ BitVec 1) (bvand (|yosys_adder#30| state) (|yosys_adder#31| state))) ; $and$adder.sv:155$45_Y
(define-fun |yosys_adder#46| ((state |yosys_adder_s|)) (_ BitVec 1) (bvnot (|yosys_adder#45| state))) ; \_21_
(define-fun |yosys_adder#47| ((state |yosys_adder_s|)) (_ BitVec 1) (bvand (|yosys_adder#35| state) (|yosys_adder#32| state))) ; \_22_
(define-fun |yosys_adder#48| ((state |yosys_adder_s|)) (_ BitVec 1) (bvnot (|yosys_adder#47| state))) ; $not$adder.sv:157$49_Y
(define-fun |yosys_adder#49| ((state |yosys_adder_s|)) (_ BitVec 1) (bvand (|yosys_adder#46| state) (|yosys_adder#48| state))) ; \_23_
(declare-fun |yosys_adder#50| (|yosys_adder_s|) (_ BitVec 1)) ; \c_i [3]
(declare-fun |yosys_adder#51| (|yosys_adder_s|) (_ BitVec 1)) ; \a_i [3]
(define-fun |yosys_adder#52| ((state |yosys_adder_s|)) (_ BitVec 1) (bvxor (|yosys_adder#50| state) (|yosys_adder#51| state))) ; $not$adder.sv:164$60_Y
(define-fun |yosys_adder#53| ((state |yosys_adder_s|)) (_ BitVec 1) (bvnot (|yosys_adder#52| state))) ; \_19_
(declare-fun |yosys_adder#54| (|yosys_adder_s|) (_ BitVec 1)) ; \b_i [3]
(define-fun |yosys_adder#55| ((state |yosys_adder_s|)) (_ BitVec 1) (bvnot (|yosys_adder#54| state))) ; \_18_
(define-fun |yosys_adder#56| ((state |yosys_adder_s|)) (_ BitVec 1) (bvxor (|yosys_adder#53| state) (|yosys_adder#55| state))) ; \_20_
(define-fun |yosys_adder#57| ((state |yosys_adder_s|)) (_ BitVec 1) (bvxor (|yosys_adder#49| state) (|yosys_adder#56| state))) ; $xor$adder.sv:158$51_Y
(define-fun |yosys_adder#58| ((state |yosys_adder_s|)) (_ BitVec 1) (bvnot (|yosys_adder#57| state))) ; \_24_
(define-fun |yosys_adder#59| ((state |yosys_adder_s|)) (_ BitVec 1) (bvxor (|yosys_adder#44| state) (|yosys_adder#58| state))) ; \sum_o [3]
(define-fun |yosys_adder#60| ((state |yosys_adder_s|)) (_ BitVec 1) (bvor (|yosys_adder#49| state) (|yosys_adder#56| state))) ; \_31_
(define-fun |yosys_adder#61| ((state |yosys_adder_s|)) (_ BitVec 1) (bvor (|yosys_adder#41| state) (|yosys_adder#58| state))) ; $not$adder.sv:168$66_Y
(define-fun |yosys_adder#62| ((state |yosys_adder_s|)) (_ BitVec 1) (bvand (|yosys_adder#60| state) (|yosys_adder#61| state))) ; \_33_
(define-fun |yosys_adder#63| ((state |yosys_adder_s|)) (_ BitVec 1) (bvor (|yosys_adder#58| state) (|yosys_adder#38| state))) ; \_34_
(define-fun |yosys_adder#64| ((state |yosys_adder_s|)) (_ BitVec 1) (bvnot (|yosys_adder#63| state))) ; $not$adder.sv:170$69_Y
(define-fun |yosys_adder#65| ((state |yosys_adder_s|)) (_ BitVec 1) (bvand (|yosys_adder#24| state) (|yosys_adder#64| state))) ; \_35_
(define-fun |yosys_adder#66| ((state |yosys_adder_s|)) (_ BitVec 1) (bvnot (|yosys_adder#65| state))) ; $not$adder.sv:171$71_Y
(define-fun |yosys_adder#67| ((state |yosys_adder_s|)) (_ BitVec 1) (bvand (|yosys_adder#62| state) (|yosys_adder#66| state))) ; \_36_
(define-fun |yosys_adder#68| ((state |yosys_adder_s|)) (_ BitVec 1) (bvand (|yosys_adder#55| state) (|yosys_adder#52| state))) ; \_29_
(define-fun |yosys_adder#69| ((state |yosys_adder_s|)) (_ BitVec 1) (bvand (|yosys_adder#50| state) (|yosys_adder#51| state))) ; \_28_
(define-fun |yosys_adder#70| ((state |yosys_adder_s|)) (_ BitVec 1) (bvor (|yosys_adder#68| state) (|yosys_adder#69| state))) ; \_30_
(define-fun |yosys_adder#71| ((state |yosys_adder_s|)) (_ BitVec 1) (bvxor (|yosys_adder#67| state) (|yosys_adder#70| state))) ; \sum_o [4]
; yosys-smt2-output sum_o 5
; yosys-smt2-wire sum_o 5
(define-fun |yosys_adder_n sum_o| ((state |yosys_adder_s|)) (_ BitVec 5) (concat (|yosys_adder#71| state) (concat (|yosys_adder#59| state) (concat (|yosys_adder#40| state) (concat (|yosys_adder#19| state) (|yosys_adder#6| state))))))
; yosys-smt2-input c_i 4
; yosys-smt2-wire c_i 4
; yosys-smt2-witness {"offset": 0, "path": ["\\c_i"], "smtname": "c_i", "smtoffset": 0, "type": "input", "width": 4}
(define-fun |yosys_adder_n c_i| ((state |yosys_adder_s|)) (_ BitVec 4) (concat (|yosys_adder#50| state) (concat (|yosys_adder#30| state) (concat (|yosys_adder#10| state) (|yosys_adder#4| state)))))
; yosys-smt2-input b_i 4
; yosys-smt2-wire b_i 4
; yosys-smt2-witness {"offset": 0, "path": ["\\b_i"], "smtname": "b_i", "smtoffset": 0, "type": "input", "width": 4}
(define-fun |yosys_adder_n b_i| ((state |yosys_adder_s|)) (_ BitVec 4) (concat (|yosys_adder#54| state) (concat (|yosys_adder#34| state) (concat (|yosys_adder#14| state) (|yosys_adder#0| state)))))
; yosys-smt2-input a_i 4
; yosys-smt2-wire a_i 4
; yosys-smt2-witness {"offset": 0, "path": ["\\a_i"], "smtname": "a_i", "smtoffset": 0, "type": "input", "width": 4}
(define-fun |yosys_adder_n a_i| ((state |yosys_adder_s|)) (_ BitVec 4) (concat (|yosys_adder#51| state) (concat (|yosys_adder#31| state) (concat (|yosys_adder#11| state) (|yosys_adder#1| state)))))
; yosys-smt2-wire _36_ 1
(define-fun |yosys_adder_n _36_| ((state |yosys_adder_s|)) Bool (= ((_ extract 0 0) (|yosys_adder#67| state)) #b1))
; yosys-smt2-wire _35_ 1
(define-fun |yosys_adder_n _35_| ((state |yosys_adder_s|)) Bool (= ((_ extract 0 0) (|yosys_adder#65| state)) #b1))
; yosys-smt2-wire _34_ 1
(define-fun |yosys_adder_n _34_| ((state |yosys_adder_s|)) Bool (= ((_ extract 0 0) (|yosys_adder#63| state)) #b1))
; yosys-smt2-wire _33_ 1
(define-fun |yosys_adder_n _33_| ((state |yosys_adder_s|)) Bool (= ((_ extract 0 0) (|yosys_adder#62| state)) #b1))
; yosys-smt2-wire _31_ 1
(define-fun |yosys_adder_n _31_| ((state |yosys_adder_s|)) Bool (= ((_ extract 0 0) (|yosys_adder#60| state)) #b1))
; yosys-smt2-wire _30_ 1
(define-fun |yosys_adder_n _30_| ((state |yosys_adder_s|)) Bool (= ((_ extract 0 0) (|yosys_adder#70| state)) #b1))
; yosys-smt2-wire _29_ 1
(define-fun |yosys_adder_n _29_| ((state |yosys_adder_s|)) Bool (= ((_ extract 0 0) (|yosys_adder#68| state)) #b1))
; yosys-smt2-wire _28_ 1
(define-fun |yosys_adder_n _28_| ((state |yosys_adder_s|)) Bool (= ((_ extract 0 0) (|yosys_adder#69| state)) #b1))
; yosys-smt2-wire _27_ 1
(define-fun |yosys_adder_n _27_| ((state |yosys_adder_s|)) Bool (= ((_ extract 0 0) (|yosys_adder#44| state)) #b1))
; yosys-smt2-wire _26_ 1
(define-fun |yosys_adder_n _26_| ((state |yosys_adder_s|)) Bool (= ((_ extract 0 0) (|yosys_adder#42| state)) #b1))
; yosys-smt2-wire _25_ 1
(define-fun |yosys_adder_n _25_| ((state |yosys_adder_s|)) Bool (= ((_ extract 0 0) (|yosys_adder#41| state)) #b1))
; yosys-smt2-wire _24_ 1
(define-fun |yosys_adder_n _24_| ((state |yosys_adder_s|)) Bool (= ((_ extract 0 0) (|yosys_adder#58| state)) #b1))
; yosys-smt2-wire _23_ 1
(define-fun |yosys_adder_n _23_| ((state |yosys_adder_s|)) Bool (= ((_ extract 0 0) (|yosys_adder#49| state)) #b1))
; yosys-smt2-wire _22_ 1
(define-fun |yosys_adder_n _22_| ((state |yosys_adder_s|)) Bool (= ((_ extract 0 0) (|yosys_adder#47| state)) #b1))
; yosys-smt2-wire _21_ 1
(define-fun |yosys_adder_n _21_| ((state |yosys_adder_s|)) Bool (= ((_ extract 0 0) (|yosys_adder#46| state)) #b1))
; yosys-smt2-wire _20_ 1
(define-fun |yosys_adder_n _20_| ((state |yosys_adder_s|)) Bool (= ((_ extract 0 0) (|yosys_adder#56| state)) #b1))
; yosys-smt2-wire _19_ 1
(define-fun |yosys_adder_n _19_| ((state |yosys_adder_s|)) Bool (= ((_ extract 0 0) (|yosys_adder#53| state)) #b1))
; yosys-smt2-wire _18_ 1
(define-fun |yosys_adder_n _18_| ((state |yosys_adder_s|)) Bool (= ((_ extract 0 0) (|yosys_adder#55| state)) #b1))
; yosys-smt2-wire _17_ 1
(define-fun |yosys_adder_n _17_| ((state |yosys_adder_s|)) Bool (= ((_ extract 0 0) (|yosys_adder#24| state)) #b1))
; yosys-smt2-wire _16_ 1
(define-fun |yosys_adder_n _16_| ((state |yosys_adder_s|)) Bool (= ((_ extract 0 0) (|yosys_adder#21| state)) #b1))
; yosys-smt2-wire _15_ 1
(define-fun |yosys_adder_n _15_| ((state |yosys_adder_s|)) Bool (= ((_ extract 0 0) (|yosys_adder#22| state)) #b1))
; yosys-smt2-wire _14_ 1
(define-fun |yosys_adder_n _14_| ((state |yosys_adder_s|)) Bool (= ((_ extract 0 0) (|yosys_adder#38| state)) #b1))
; yosys-smt2-wire _13_ 1
(define-fun |yosys_adder_n _13_| ((state |yosys_adder_s|)) Bool (= ((_ extract 0 0) (|yosys_adder#29| state)) #b1))
; yosys-smt2-wire _12_ 1
(define-fun |yosys_adder_n _12_| ((state |yosys_adder_s|)) Bool (= ((_ extract 0 0) (|yosys_adder#27| state)) #b1))
; yosys-smt2-wire _11_ 1
(define-fun |yosys_adder_n _11_| ((state |yosys_adder_s|)) Bool (= ((_ extract 0 0) (|yosys_adder#26| state)) #b1))
; yosys-smt2-wire _10_ 1
(define-fun |yosys_adder_n _10_| ((state |yosys_adder_s|)) Bool (= ((_ extract 0 0) (|yosys_adder#36| state)) #b1))
; yosys-smt2-wire _09_ 1
(define-fun |yosys_adder_n _09_| ((state |yosys_adder_s|)) Bool (= ((_ extract 0 0) (|yosys_adder#33| state)) #b1))
; yosys-smt2-wire _08_ 1
(define-fun |yosys_adder_n _08_| ((state |yosys_adder_s|)) Bool (= ((_ extract 0 0) (|yosys_adder#35| state)) #b1))
; yosys-smt2-wire _07_ 1
(define-fun |yosys_adder_n _07_| ((state |yosys_adder_s|)) Bool (= ((_ extract 0 0) (|yosys_adder#7| state)) #b1))
; yosys-smt2-wire _06_ 1
(define-fun |yosys_adder_n _06_| ((state |yosys_adder_s|)) Bool (= ((_ extract 0 0) (|yosys_adder#3| state)) #b1))
; yosys-smt2-wire _05_ 1
(define-fun |yosys_adder_n _05_| ((state |yosys_adder_s|)) Bool (= ((_ extract 0 0) (|yosys_adder#5| state)) #b1))
; yosys-smt2-wire _04_ 1
(define-fun |yosys_adder_n _04_| ((state |yosys_adder_s|)) Bool (= ((_ extract 0 0) (|yosys_adder#17| state)) #b1))
; yosys-smt2-wire _03_ 1
(define-fun |yosys_adder_n _03_| ((state |yosys_adder_s|)) Bool (= ((_ extract 0 0) (|yosys_adder#9| state)) #b1))
; yosys-smt2-wire _02_ 1
(define-fun |yosys_adder_n _02_| ((state |yosys_adder_s|)) Bool (= ((_ extract 0 0) (|yosys_adder#16| state)) #b1))
; yosys-smt2-wire _01_ 1
(define-fun |yosys_adder_n _01_| ((state |yosys_adder_s|)) Bool (= ((_ extract 0 0) (|yosys_adder#13| state)) #b1))
; yosys-smt2-wire _00_ 1
(define-fun |yosys_adder_n _00_| ((state |yosys_adder_s|)) Bool (= ((_ extract 0 0) (|yosys_adder#15| state)) #b1))
(define-fun |yosys_adder_a| ((state |yosys_adder_s|)) Bool true)
(define-fun |yosys_adder_u| ((state |yosys_adder_s|)) Bool true)
(define-fun |yosys_adder_i| ((state |yosys_adder_s|)) Bool true)
(define-fun |yosys_adder_h| ((state |yosys_adder_s|)) Bool true)
(define-fun |yosys_adder_t| ((state |yosys_adder_s|) (next_state |yosys_adder_s|)) Bool true) ; end of module yosys_adder
; yosys-smt2-module adder_synth
(declare-sort |adder_synth_s| 0)
(declare-fun |adder_synth_is| (|adder_synth_s|) Bool)
; yosys-smt2-cell yosys_adder adder_synth_i
; yosys-smt2-witness {"path": ["\\adder_synth_i"], "smtname": "adder_synth_i", "type": "cell"}
(declare-fun |adder_synth#0| (|adder_synth_s|) (_ BitVec 5)) ; \sum_o
(declare-fun |adder_synth_h adder_synth_i| (|adder_synth_s|) |yosys_adder_s|)
; yosys-smt2-output sum_o 5
; yosys-smt2-wire sum_o 5
(define-fun |adder_synth_n sum_o| ((state |adder_synth_s|)) (_ BitVec 5) (|adder_synth#0| state))
(declare-fun |adder_synth#1| (|adder_synth_s|) (_ BitVec 4)) ; \c_i
; yosys-smt2-input c_i 4
; yosys-smt2-wire c_i 4
; yosys-smt2-witness {"offset": 0, "path": ["\\c_i"], "smtname": "c_i", "smtoffset": 0, "type": "input", "width": 4}
(define-fun |adder_synth_n c_i| ((state |adder_synth_s|)) (_ BitVec 4) (|adder_synth#1| state))
(declare-fun |adder_synth#2| (|adder_synth_s|) (_ BitVec 4)) ; \b_i
; yosys-smt2-input b_i 4
; yosys-smt2-wire b_i 4
; yosys-smt2-witness {"offset": 0, "path": ["\\b_i"], "smtname": "b_i", "smtoffset": 0, "type": "input", "width": 4}
(define-fun |adder_synth_n b_i| ((state |adder_synth_s|)) (_ BitVec 4) (|adder_synth#2| state))
(declare-fun |adder_synth#3| (|adder_synth_s|) (_ BitVec 4)) ; \a_i
; yosys-smt2-input a_i 4
; yosys-smt2-wire a_i 4
; yosys-smt2-witness {"offset": 0, "path": ["\\a_i"], "smtname": "a_i", "smtoffset": 0, "type": "input", "width": 4}
(define-fun |adder_synth_n a_i| ((state |adder_synth_s|)) (_ BitVec 4) (|adder_synth#3| state))
(define-fun |adder_synth#4| ((state |adder_synth_s|)) (_ BitVec 5) (bvadd (concat #b0 (|adder_synth#3| state)) (concat #b0 (|adder_synth#2| state)))) ; $add$adder.sv:58$5_Y
(define-fun |adder_synth#5| ((state |adder_synth_s|)) (_ BitVec 5) (bvadd (|adder_synth#4| state) (concat #b0 (|adder_synth#1| state)))) ; $add$adder.sv:58$6_Y
(define-fun |adder_synth#6| ((state |adder_synth_s|)) Bool (= (|adder_synth#0| state) (|adder_synth#5| state))) ; $eq$adder.sv:58$7_Y
; yosys-smt2-assert 0 $assert$adder.sv:57$8 adder.sv:57.53-58.50
(define-fun |adder_synth_a 0| ((state |adder_synth_s|)) Bool (or (|adder_synth#6| state) (not true))) ; $assert$adder.sv:57$8
(define-fun |adder_synth#7| ((state |adder_synth_s|)) (_ BitVec 5) (bvsub (concat #b0 (|adder_synth#3| state)) (concat #b0 (|adder_synth#2| state)))) ; $sub$adder.sv:57$1_Y
(define-fun |adder_synth#8| ((state |adder_synth_s|)) (_ BitVec 5) (bvadd (|adder_synth#7| state) (concat #b0 (|adder_synth#1| state)))) ; $add$adder.sv:57$2_Y
(define-fun |adder_synth#9| ((state |adder_synth_s|)) Bool (= (|adder_synth#0| state) (|adder_synth#8| state))) ; $eq$adder.sv:57$3_Y
; yosys-smt2-assert 1 $assert$adder.sv:41$4 adder.sv:41.33-57.52
(define-fun |adder_synth_a 1| ((state |adder_synth_s|)) Bool (or (|adder_synth#9| state) (not true))) ; $assert$adder.sv:41$4
(define-fun |adder_synth_a| ((state |adder_synth_s|)) Bool (and
  (|adder_synth_a 0| state)
  (|adder_synth_a 1| state)
  (|yosys_adder_a| (|adder_synth_h adder_synth_i| state))
))
(define-fun |adder_synth_u| ((state |adder_synth_s|)) Bool 
  (|yosys_adder_u| (|adder_synth_h adder_synth_i| state))
)
(define-fun |adder_synth_i| ((state |adder_synth_s|)) Bool 
  (|yosys_adder_i| (|adder_synth_h adder_synth_i| state))
)
(define-fun |adder_synth_h| ((state |adder_synth_s|)) Bool (and
  (= (|adder_synth_is| state) (|yosys_adder_is| (|adder_synth_h adder_synth_i| state)))
  (= (|adder_synth#0| state) (|yosys_adder_n sum_o| (|adder_synth_h adder_synth_i| state))) ; yosys_adder.sum_o
  (= (|adder_synth#1| state) (|yosys_adder_n c_i| (|adder_synth_h adder_synth_i| state))) ; yosys_adder.c_i
  (= (|adder_synth#2| state) (|yosys_adder_n b_i| (|adder_synth_h adder_synth_i| state))) ; yosys_adder.b_i
  (= (|adder_synth#3| state) (|yosys_adder_n a_i| (|adder_synth_h adder_synth_i| state))) ; yosys_adder.a_i
  (|yosys_adder_h| (|adder_synth_h adder_synth_i| state))
))
(define-fun |adder_synth_t| ((state |adder_synth_s|) (next_state |adder_synth_s|)) Bool 
  (|yosys_adder_t| (|adder_synth_h adder_synth_i| state) (|adder_synth_h adder_synth_i| next_state))
) ; end of module adder_synth
; yosys-smt2-topmod adder_synth
; end of yosys output
